data/benchmarks/bayes/75-15-9-q.cnf
p cnf 1065 1033
c weights 0.214085 0.785915 1 1 1 1 1 1 1 1 1 1 1 1 1 1 1 1 1 1 1 1 1 1 1 1 1 1 1 1 1 1 1 1 1 1 1 1 1 1 1 1 1 1 1 1 1 1 1 1 1 1 1 1 1 1 1 1 1 1 1 1 1 1 1 1 1 1 1 1 1 1 1 1 1 1 1 1 1 1 1 1 1 1 1 1 1 1 1 1 1 1 1 1 1 1 1 1 1 1 1 1 1 1 1 1 1 1 1 1 1 1 1 1 1 1 1 1 1 1 1 1 1 1 1 1 1 1 1 1 1 1 1 1 1 1 1 1 1 1 1 1 1 1 1 1 1 1 1 1 1 1 1 1 1 1 1 1 1 1 1 1 1 1 1 1 1 1 1 1 1 1 1 1 1 1 1 1 1 1 1 1 1 1 1 1 1 1 1 1 1 1 1 1 1 1 1 1 1 1 1 1 1 1 1 1 1 1 1 1 1 1 1 1 1 1 1 1 1 1 1 1 1 1 1 1 1 1 1 1 1 1 1 1 1 1 1 1 1 1 1 1 1 1 1 1 1 1 1 1 1 1 1 1 1 1 1 1 1 1 1 1 1 1 1 1 1 1 1 1 1 1 1 1 1 1 1 1 1 1 1 1 1 1 1 1 1 1 1 1 1 1 1 1 1 1 1 1 1 1 1 1 1 1 1 1 1 1 1 1 1 1 1 1 1 1 1 1 1 1 1 1 1 1 1 1 1 1 1 1 1 1 1 1 1 1 1 1 1 1 1 1 1 1 1 1 1 1 1 1 1 1 1 1 1 1 1 1 1 1 1 1 1 1 1 1 1 1 1 1 1 1 1 1 1 1 1 1 1 1 1 1 1 1 1 1 1 1 1 1 1 1 1 1 1 1 1 1 1 1 1 1 1 1 1 1 1 1 1 1 1 1 1 1 1 1 1 1 1 1 1 1 1 1 1 1 1 1 1 1 1 1 1 1 1 1 1 1 1 1 1 1 1 1 1 1 1 1 1 1 0.5 0.5 0.5 0.5 0.5 0.5 0.5 0.5 0.5 0.5 0.5 0.5 0.5 0.5 0.5 0.5 0.5 0.5 0.5 0.5 0.5 0.5 0.5 0.5 0.5 0.5 0.5 0.5 0.918616 0.08138400000000001 0.920691 0.07930899999999996 0.5 0.5 0.5 0.5 0.5 0.5 0.5 0.5 0.5 0.5 0.5 0.5 0.5 0.5 0.5 0.5 0.871752 0.12824800000000003 0.524195 0.47580500000000003 0.5 0.5 0.5 0.5 0.5 0.5 0.5 0.5 0.5 0.5 0.5 0.5 0.5 0.5 0.5 0.5 0.5 0.5 0.5 0.5 0.5 0.5 0.5 0.5 0.853232 0.146768 0.00681689 0.99318311 0.810516 0.18948399999999999 0.773923 0.22607699999999997 0.5 0.5 0.5 0.5 0.5 0.5 0.5 0.5 0.5 0.5 0.5 0.5 0.5 0.5 0.5 0.5 0.5 0.5 0.5 0.5 0.5 0.5 0.5 0.5 0.5 0.5 0.5 0.5 0.5 0.5 0.5 0.5 0.5 0.5 0.5 0.5 0.5 0.5 0.5 0.5 0.5 0.5 0.5 0.5 0.5 0.5 0.5 0.5 0.5 0.5 0.5 0.5 0.5 0.5 0.5 0.5 0.5 0.5 0.5 0.5 0.5 0.5 0.5 0.5 0.5 0.5 0.5 0.5 0.5 0.5 0.5 0.5 0.5 0.5 0.5 0.5 0.5 0.5 0.5 0.5 0.5 0.5 0.5 0.5 0.5 0.5 0.5 0.5 0.5 0.5 0.5 0.5 0.5 0.5 0.5 0.5 0.5 0.5 0.5 0.5 0.548654 0.451346 0.372388 0.6276120000000001 0.0853925 0.9146075 0.0609532 0.9390468 0.5 0.5 0.5 0.5 0.5 0.5 0.5 0.5 0.523835 0.47616499999999995 0.398225 0.601775 0.329427 0.670573 0.486132 0.513868 0.5 0.5 0.5 0.5 0.5 0.5 0.5 0.5 0.5 0.5 0.5 0.5 0.5 0.5 0.5 0.5 0.5 0.5 0.5 0.5 0.5 0.5 0.5 0.5 0.5 0.5 0.5 0.5 0.5 0.5 0.5 0.5 0.478693 0.521307 0.447666 0.552334 0.788129 0.21187100000000003 0.571179 0.428821 0.5 0.5 0.5 0.5 0.5 0.5 0.5 0.5 0.5 0.5 0.5 0.5 0.5 0.5 0.5 0.5 0.5 0.5 0.5 0.5 0.5 0.5 0.5 0.5 0.5 0.5 0.5 0.5 0.5 0.5 0.5 0.5 0.5 0.5 0.5 0.5 0.5 0.5 0.5 0.5 0.5 0.5 0.5 0.5 0.5 0.5 0.5 0.5 0.5 0.5 0.5 0.5 0.5 0.5 0.5 0.5 0.5 0.5 0.5 0.5 0.5 0.5 0.5 0.5 0.5 0.5 0.5 0.5 0.5 0.5 0.5 0.5 0.5 0.5 0.5 0.5 0.5 0.5 0.5 0.5 0.5 0.5 0.5 0.5 0.371317 0.628683 0.199997 0.800003 0.183006 0.816994 0.550722 0.44927799999999996 0.5 0.5 0.5 0.5 0.5 0.5 0.5 0.5 0.5 0.5 0.5 0.5 0.5 0.5 0.5 0.5 0.5 0.5 0.5 0.5 0.5 0.5 0.5 0.5 0.5 0.5 0.5 0.5 0.5 0.5 0.5 0.5 0.5 0.5 0.5 0.5 0.5 0.5 0.5 0.5 0.5 0.5 0.5 0.5 0.5 0.5 0.5 0.5 0.921831 0.07816900000000004 0.0725296 0.9274704 0.448383 0.551617 0.631506 0.368494 0.5 0.5 0.5 0.5 0.5 0.5 0.5 0.5 0.5 0.5 0.5 0.5 0.5 0.5 0.5 0.5 0.5 0.5 0.5 0.5 0.318016 0.6819839999999999 0.977664 0.022336000000000023 0.593472 0.406528 0.589732 0.41026799999999997 0.436619 0.563381 0.665579 0.33442099999999997 0.929461 0.07053900000000002 0.489208 0.510792 0.5 0.5 0.5 0.5 0.5 0.5 0.5 0.5 0.5 0.5 0.5 0.5 0.5 0.5 0.5 0.5 0.16563 0.8343700000000001 0.534389 0.465611 0.810081 0.18991899999999995 0.170118 0.829882 0.374637 0.625363 0.0464223 0.9535777 0.250163 0.749837 0.977549 0.022451 0.56818 0.43182 0.955213 0.04478700000000002 0.544186 0.45581400000000005 0.157912 0.842088 0.980806 0.019194000000000044 0.82349 0.17650999999999994 0.806046 0.19395399999999996 0.470014 0.5299860000000001 0.5 0.5 0.5 0.5 0.5 0.5 0.5 0.5 0.453595 0.546405 0.0412802 0.9587198 0.170561 0.829439 0.123564 0.876436 0.5 0.5 0.5 0.5 0.5 0.5 0.5 0.5 0.5 0.5 0.5 0.5 0.5 0.5 0.5 0.5 0.5 0.5 0.5 0.5 0.5 0.5 0.5 0.5 0.936378 0.06362199999999996 0.981441 0.018558999999999992 0.5 0.5 0.5 0.5 0.5 0.5 0.5 0.5 0.5 0.5 0.5 0.5 0.5 0.5 0.5 0.5 0.5 0.5 0.5 0.5 0.5 0.5 0.5 0.5 0.5 0.5 0.5 0.5 0.5 0.5 0.5 0.5 0.5 0.5 0.5 0.5 0.5 0.5 0.5 0.5 0.695364 0.304636 0.0904245 0.9095755 0.714146 0.28585400000000005 0.631742 0.368258 0.5 0.5 0.5 0.5 0.5 0.5 0.5 0.5 0.5 0.5 0.5 0.5 0.5 0.5 0.5 0.5 0.5 0.5 0.5 0.5 0.5 0.5 0.5 0.5 0.5 0.5 0.5 0.5 0.5 0.5 0.5 0.5 0.0210431 0.9789569 0.146725 0.853275 0.131593 0.868407 0.656615 0.34338500000000005 0.5 0.5 0.5 0.5 0.5 0.5 0.5 0.5 0.398804 0.6011960000000001 0.0975218 0.9024782 0.357887 0.6421129999999999 0.922123 0.07787699999999997 0.5 0.5 0.5 0.5 0.5 0.5 0.5 0.5 0.799639 0.200361 0.72739 0.27261 0.5 0.5 0.5 0.5 0.5 0.5 0.5 0.5 0.416279 0.5837209999999999 0.469179 0.530821 0.865684 0.134316 0.563003 0.43699699999999997 0.5 0.5 0.5 0.5 0.5 0.5 0.5 0.5 0.5 0.5 0.5 0.5 0.5 0.5 0.5 0.5 0.5 0.5 0.5 0.5 0.5 0.5 0.5 0.5 0.5 0.5 0.5 0.5 0.5 0.5 0.5 0.5 0.5 0.5 0.5 0.5 0.5 0.5 0.5 0.5 0.5 0.5 0.5 0.5 0.5 0.5 0.5 0.5 0.5 0.5 0.5 0.5 0.5 0.5 0.5 0.5 0.5 0.5 0.5 0.5 0.5 0.5 0.5 0.5 0.193941 0.806059 0.449414 0.550586 0.697922 0.30207799999999996 0.999216 0.0007840000000000069 0.5 0.5 0.5 0.5 0.5 0.5 0.5 0.5 0.5 0.5 0.5 0.5 0.5 0.5 0.5 0.5 0.429208 0.570792 0.732344 0.267656 0.648544 0.351456 0.980005 0.019994999999999985 0.894319 0.10568100000000002 0.330319 0.669681 0.0143724 0.9856276 0.80709 0.19291000000000003 0.1378 0.8622 0.992426 0.00757399999999997 0.94512 0.05488000000000004 0.186367 0.813633 0.258534 0.741466 0.643042 0.356958 0.5 0.5 0.5 0.5 0.5 0.5 0.5 0.5 0.5 0.5 0.5 0.5 0.5 0.5 0.5 0.5 0.5 0.5 0.5 0.5 0.5 0.5 0.5 0.5 0.5 0.5 0.5 0.5 0.5 0.5 0.5 0.5 0.5 0.5 0.5 0.5 0.5 0.5 0.5 0.5 0.5 0.5 0.5 0.5 0.5 0.5 0.5 0.5 0.5 0.5 0.5 0.5 0.5 0.5 0.5 0.5 0.5 0.5 0.5 0.5 0.5 0.5 0.5 0.5 0.5 0.5 0.5 0.5 0.5 0.5 0.5 0.5 0.5 0.5 0.5 0.5 0.5 0.5 0.5 0.5 0.5 0.5 0.5 0.5 0.5 0.5 0.5 0.5 0.5 0.5 0.5 0.5 0.5 0.5 0.5 0.5 0.5 0.5 0.5 0.5 0.443978 0.556022 0.00142935 0.99857065 0.859825 0.14017500000000005 0.901032 0.09896799999999994 0.5 0.5 0.5 0.5 0.5 0.5 0.5 0.5 0.5 0.5 0.5 0.5 0.5 0.5 0.5 0.5 0.5 0.5 0.5 0.5 0.5 0.5 0.5 0.5 0.5 0.5 0.5 0.5 0.5 0.5 0.5 0.5 0.5 0.5 0.5 0.5 0.5 0.5 0.5 0.5 0.238792 0.761208 0.117889 0.882111 0.778125 0.22187500000000004 0.0986162 0.9013838 0.5 0.5 0.5 0.5 0.5 0.5 0.5 0.5 0.5 0.5 0.5 0.5 0.5 0.5 0.5 0.5 0.5 0.5 0.5 0.5 0.5 0.5 0.5 0.5 0.5 0.5 0.5 0.5 0.5 0.5 0.5 0.5 0.5 0.5 0.5 0.5 0.5 0.5 0.5 0.5 0.5 0.5 0.5 0.5 0.5 0.5 0.5 0.5 0.5 0.5 0.5 0.5 0.5 0.5 0.5 0.5 0.5 0.5 0.5 0.5 0.879545 0.12045499999999998 0.149971 0.850029 0.423505 0.576495 0.258151 0.741849 0.5 0.5 0.5 0.5 0.5 0.5 0.5 0.5 0.369999 0.630001 0.837828 0.16217199999999998 0.444583 0.555417 0.786506 0.21349399999999996 0.5 0.5 0.5 0.5 0.5 0.5 0.5 0.5 0.0748404 0.9251596 0.821342 0.17865799999999998 0.969606 0.030394000000000032 0.475994 0.524006 0.574923 0.42507700000000004 0.0351532 0.9648468 0.261846 0.738154 0.790299 0.20970100000000003 0.141392 0.858608 0.94027 0.05972999999999995 0.259024 0.7409760000000001 0.399543 0.600457 0.5 0.5 0.5 0.5 0.5 0.5 0.5 0.5 0.5 0.5 0.5 0.5 0.5 0.5 0.5 0.5 0.170157 0.829843 0.316731 0.683269 0.538735 0.46126500000000004 0.75493 0.24507 0.5 0.5 0.5 0.5 0.5 0.5 0.5 0.5 0.5 0.5 0.5 0.5 0.5 0.5 0.5 0.5 0.901345 0.09865500000000005 0.35506 0.6449400000000001 0.219267 0.780733 0.300888 0.699112 0.454521 0.545479 0.660268 0.33973200000000003 0.723443 0.27655700000000005 0.959275 0.04072500000000001 0.5 0.5 0.5 0.5 0.658171 0.34182900000000005 0.366513 0.633487 0.495287 0.504713 0.504299 0.49570099999999995 0.5 0.5 0.5 0.5 0.5 0.5 0.5 0.5 0.5 0.5 0.5 0.5 0.5 0.5 0.5 0.5 0.5 0.5 0.5 0.5 0.5 0.5 0.5 0.5 0.5 0.5 0.5 0.5 0.5 0.5 0.5 0.5 0.5 0.5 0.5 0.5 0.5 0.5 0.5 0.5 0.5 0.5 0.5 0.5 0.5 0.5 0.5 0.5 0.5 0.5 0.5 0.5 0.5 0.5 0.5 0.5 0.5 0.5 0.5 0.5 0.5 0.5 0.5 0.5 0.0051091 0.9948909 0.70793 0.29207000000000005 0.919248 0.08075200000000005 0.985939 0.01406099999999999 0.5 0.5 0.5 0.5 0.5 0.5 0.5 0.5 0.5 0.5 0.5 0.5 0.5 0.5 0.5 0.5 0.5 0.5 0.5 0.5 0.5 0.5 0.5 0.5 0.5 0.5 0.5 0.5 0.5 0.5 0.5 0.5 0.5 0.5 0.5 0.5 0.5 0.5 0.5 0.5 0.5 0.5 0.5 0.5 0.5 0.5 0.5 0.5 0.5 0.5 0.5 0.5 0.966714 0.03328600000000004 0.145771 0.854229 0.0629973 0.9370027 0.229836 0.770164 0.621621 0.378379 0.721696 0.278304 0.875219 0.12478100000000003 0.478479 0.521521 0.5 0.5 0.5 0.5 0.5 0.5 0.5 0.5 0.5 0.5 0.5 0.5 0.5 0.5 0.5 0.5 0.5 0.5 0.5 0.5 0.5 0.5 0.5 0.5 0.5 0.5 0.5 0.5 0.5 0.5 0.5 0.5 0.5 0.5 0.5 0.5 0.5 0.5 0.5 0.5 0.191219 0.808781 0.374114 0.6258859999999999 0.520162 0.479838 0.0664388 0.9335612 0.620625 0.379375 0.719921 0.28007899999999997 0.981453 0.01854699999999998 0.49106 0.50894 0.5 0.5 0.5 0.5 0.5 0.5 0.5 0.5 0.0628829 0.9371171 0.835181 0.16481900000000005 0.437222 0.562778 0.227275 0.772725 0.5 0.5 0.5 0.5 0.5 0.5 0.5 0.5 0.5 0.5 0.5 0.5 0.5 0.5 0.5 0.5 0.5 0.5 0.5 0.5 0.316062 0.6839379999999999 0.62634 0.37366 0.913457 0.08654300000000004 0.168656 0.831344 0.5 0.5 0.5 0.5 0.5 0.5 0.5 0.5 0.5 0.5 0.5 0.5 0.5 0.5 0.5 0.5 0.855973 0.14402700000000002 0.676377 0.323623 0.0678106 0.9321894 0.219503 0.780497 0.5 0.5 0.5 0.5 0.5 0.5 0.5 0.5 0.5 0.5 0.5 0.5 0.5 0.5 0.5 0.5 0.5 0.5 0.5 0.5 0.5 0.5 0.5 0.5 0.5 0.5 0.5 0.5 0.5 0.5 0.5 0.5 0.5 0.5 0.5 0.5 0.5 0.5 0.5 0.5 0.5 0.5 0.5 0.5 0.5 0.5 0.5 0.5 0.5 0.5 0.5 0.5 0.5 0.5 0.5 0.5 0.5 0.5 0.5 0.5 0.5 0.5 0.5 0.5 0.5 0.5 0.5 0.5 0.5 0.5 0.5 0.5 0.350536 0.649464 0.192062 0.807938 0.5 0.5 0.5 0.5 0.5 0.5 0.5 0.5 0.5 0.5 0.5 0.5 0.5 0.5 0.5 0.5 0.5 0.5 0.5 0.5 0.5 0.5 0.5 0.5 0.5 0.5 0.5 0.5 0.5 0.5 0.5 0.5 0.778822 0.22117799999999999 0.112011 0.887989 0.0533573 0.9466427 0.329613 0.6703870000000001 0.5 0.5 0.5 0.5 0.5 0.5 0.5 0.5 0.5 0.5 0.5 0.5 0.5 0.5 0.5 0.5 0.5 0.5 0.5 0.5 0.5 0.5 0.5 0.5 0.0023495 0.9976505 0.0773704 0.9226296 0.771892 0.22810799999999998 0.618404 0.38159600000000005 0.5 0.5 0.5 0.5 0.5 0.5 0.5 0.5 0.5 0.5 0.5 0.5 0.5 0.5 0.5 0.5 0.5 0.5 0.5 0.5 0.5 0.5 0.5 0.5 0.5 0.5 0.5 0.5 0.5 0.5 0.5 0.5 0.5 0.5 0.5 0.5 0.5 0.5 0.5 0.5 0.5 0.5 0.5 0.5 0.468449 0.531551 0.853169 0.14683100000000004 0.422647 0.577353 0.647509 0.352491 0.5 0.5 0.5 0.5 0.5 0.5 0.5 0.5 0.5 0.5 0.5 0.5 0.5 0.5 0.5 0.5 0.5 0.5 0.5 0.5 0.5 0.5 0.5 0.5 0.5 0.5 0.5 0.5 0.5 0.5 0.5 0.5 0.5 0.5 0.5 0.5 0.5 0.5 0.5 0.5 0.5 0.5 0.5 0.5 0.5 0.5 0.5 0.5 0.5 0.5 0.5 0.5 0.5 0.5 0.5 0.5 0.5 0.5 0.5 0.5 0.5 0.5 0.5 0.5 0.604099 0.39590099999999995 0.301724 0.698276 0.649292 0.350708 0.527377 0.472623 0.5 0.5 0.5 0.5 0.5 0.5 0.5 0.5 0.5 0.5 0.5 0.5 0.5 0.5 0.5 0.5 0.994833 0.005167000000000033 0.738154 0.261846 0.421302 0.5786979999999999 0.0757946 0.9242054 0.5 0.5 0.5 0.5 0.5 0.5 0.5 0.5
-1 2 0
1 -2 0
-2 3 0
2 -3 0
-3 4 0
3 -4 0
-4 -5 0
4 5 0
-5 6 0
5 -6 0
-6 -7 0
6 7 0
-7 -8 0
7 8 0
-8 -240 9 0
-8 240 -9 0
8 -241 9 0
8 241 -9 0
-9 10 0
9 -10 0
-10 11 0
10 -11 0
-11 -12 0
11 12 0
-12 13 0
12 -13 0
-13 -250 14 0
-13 250 -14 0
13 -251 14 0
13 251 -14 0
-14 -15 0
14 15 0
-1 -16 0
1 16 0
-16 -2 17 0
-16 2 -17 0
16 -2 -17 0
16 2 -17 0
-17 -3 -18 0
-17 3 -18 0
17 -3 18 0
17 3 -18 0
-18 -4 -264 19 0
-18 -4 264 -19 0
-18 4 -265 19 0
-18 4 265 -19 0
18 -4 -266 19 0
18 -4 266 -19 0
18 4 -267 19 0
18 4 267 -19 0
-19 -5 -20 0
-19 5 -20 0
19 -5 20 0
19 5 -20 0
-20 -6 -21 0
-20 6 21 0
20 -6 21 0
20 6 -21 0
-21 -7 -22 0
-21 7 -22 0
21 -7 -22 0
21 7 22 0
-22 -8 -23 0
-22 8 -23 0
22 -8 23 0
22 8 23 0
-23 -9 24 0
-23 9 -24 0
23 -9 24 0
23 9 24 0
-24 -10 -25 0
-24 10 25 0
24 -10 25 0
24 10 25 0
-25 -11 26 0
-25 11 26 0
25 -11 26 0
25 11 -26 0
-26 -12 -27 0
-26 12 -27 0
26 -12 -27 0
26 12 27 0
-27 -13 -28 0
-27 13 28 0
27 -13 28 0
27 13 28 0
-28 -14 29 0
-28 14 29 0
28 -14 -29 0
28 14 29 0
-29 -15 30 0
-29 15 30 0
29 -15 30 0
29 15 -30 0
-16 -31 0
16 31 0
-31 -17 -32 0
-31 17 -32 0
31 -17 -32 0
31 17 32 0
-32 -18 -318 33 0
-32 -18 318 -33 0
-32 18 -319 33 0
-32 18 319 -33 0
32 -18 -320 33 0
32 -18 320 -33 0
32 18 -321 33 0
32 18 321 -33 0
-33 -19 -34 0
-33 19 -34 0
33 -19 34 0
33 19 -34 0
-34 -20 -326 35 0
-34 -20 326 -35 0
-34 20 -327 35 0
-34 20 327 -35 0
34 -20 -328 35 0
34 -20 328 -35 0
34 20 -329 35 0
34 20 329 -35 0
-35 -21 -36 0
-35 21 -36 0
35 -21 36 0
35 21 36 0
-36 -22 -37 0
-36 22 -37 0
36 -22 37 0
36 22 37 0
-37 -23 -38 0
-37 23 38 0
37 -23 38 0
37 23 -38 0
-38 -24 39 0
-38 24 -39 0
38 -24 -39 0
38 24 39 0
-39 -25 -346 40 0
-39 -25 346 -40 0
-39 25 -347 40 0
-39 25 347 -40 0
39 -25 -348 40 0
39 -25 348 -40 0
39 25 -349 40 0
39 25 349 -40 0
-40 -26 -41 0
-40 26 41 0
40 -26 41 0
40 26 -41 0
-41 -27 -42 0
-41 27 -42 0
41 -27 42 0
41 27 42 0
-42 -28 43 0
-42 28 43 0
42 -28 -43 0
42 28 -43 0
-43 -29 44 0
-43 29 -44 0
43 -29 44 0
43 29 44 0
-44 -30 45 0
-44 30 -45 0
44 -30 45 0
44 30 45 0
-31 -46 0
31 46 0
-46 -32 47 0
-46 32 47 0
46 -32 47 0
46 32 -47 0
-47 -33 -48 0
-47 33 -48 0
47 -33 48 0
47 33 -48 0
-48 -34 49 0
-48 34 49 0
48 -34 -49 0
48 34 -49 0
-49 -35 50 0
-49 35 -50 0
49 -35 -50 0
49 35 -50 0
-50 -36 51 0
-50 36 51 0
50 -36 -51 0
50 36 -51 0
-51 -37 -392 52 0
-51 -37 392 -52 0
-51 37 -393 52 0
-51 37 393 -52 0
51 -37 -394 52 0
51 -37 394 -52 0
51 37 -395 52 0
51 37 395 -52 0
-52 -38 53 0
-52 38 -53 0
52 -38 53 0
52 38 -53 0
-53 -39 -54 0
-53 39 -54 0
53 -39 -54 0
53 39 54 0
-54 -40 -55 0
-54 40 -55 0
54 -40 55 0
54 40 55 0
-55 -41 56 0
-55 41 -56 0
55 -41 -56 0
55 41 56 0
-56 -42 -57 0
-56 42 -57 0
56 -42 -57 0
56 42 57 0
-57 -43 -58 0
-57 43 -58 0
57 -43 58 0
57 43 -58 0
-58 -44 -420 59 0
-58 -44 420 -59 0
-58 44 -421 59 0
-58 44 421 -59 0
58 -44 -422 59 0
58 -44 422 -59 0
58 44 -423 59 0
58 44 423 -59 0
-59 -45 -60 0
-59 45 60 0
59 -45 -60 0
59 45 -60 0
-46 61 0
46 -61 0
-61 -47 62 0
-61 47 -62 0
61 -47 -62 0
61 47 -62 0
-62 -48 -434 63 0
-62 -48 434 -63 0
-62 48 -435 63 0
-62 48 435 -63 0
62 -48 -436 63 0
62 -48 436 -63 0
62 48 -437 63 0
62 48 437 -63 0
-63 -49 -438 64 0
-63 -49 438 -64 0
-63 49 -439 64 0
-63 49 439 -64 0
63 -49 -440 64 0
63 -49 440 -64 0
63 49 -441 64 0
63 49 441 -64 0
-64 -50 -65 0
-64 50 -65 0
64 -50 65 0
64 50 -65 0
-65 -51 66 0
-65 51 66 0
65 -51 -66 0
65 51 66 0
-66 -52 -450 67 0
-66 -52 450 -67 0
-66 52 -451 67 0
-66 52 451 -67 0
66 -52 -452 67 0
66 -52 452 -67 0
66 52 -453 67 0
66 52 453 -67 0
-67 -53 -454 68 0
-67 -53 454 -68 0
-67 53 -455 68 0
-67 53 455 -68 0
67 -53 -456 68 0
67 -53 456 -68 0
67 53 -457 68 0
67 53 457 -68 0
-68 -54 -458 69 0
-68 -54 458 -69 0
-68 54 -459 69 0
-68 54 459 -69 0
68 -54 -460 69 0
68 -54 460 -69 0
68 54 -461 69 0
68 54 461 -69 0
-69 -55 -462 70 0
-69 -55 462 -70 0
-69 55 -463 70 0
-69 55 463 -70 0
69 -55 -464 70 0
69 -55 464 -70 0
69 55 -465 70 0
69 55 465 -70 0
-70 -56 71 0
-70 56 -71 0
70 -56 71 0
70 56 -71 0
-71 -57 -470 72 0
-71 -57 470 -72 0
-71 57 -471 72 0
-71 57 471 -72 0
71 -57 -472 72 0
71 -57 472 -72 0
71 57 -473 72 0
71 57 473 -72 0
-72 -58 -73 0
-72 58 73 0
72 -58 -73 0
72 58 -73 0
-73 -59 74 0
-73 59 -74 0
73 -59 74 0
73 59 -74 0
-74 -60 75 0
-74 60 75 0
74 -60 75 0
74 60 -75 0
-61 -486 76 0
-61 486 -76 0
61 -487 76 0
61 487 -76 0
-76 -62 77 0
-76 62 -77 0
76 -62 77 0
76 62 77 0
-77 -63 -78 0
-77 63 78 0
77 -63 -78 0
77 63 78 0
-78 -64 79 0
-78 64 -79 0
78 -64 -79 0
78 64 -79 0
-79 -65 80 0
-79 65 -80 0
79 -65 80 0
79 65 -80 0
-80 -66 -81 0
-80 66 81 0
80 -66 -81 0
80 66 81 0
-81 -67 -508 82 0
-81 -67 508 -82 0
-81 67 -509 82 0
-81 67 509 -82 0
81 -67 -510 82 0
81 -67 510 -82 0
81 67 -511 82 0
81 67 511 -82 0
-82 -68 -83 0
-82 68 83 0
82 -68 83 0
82 68 -83 0
-83 -69 84 0
-83 69 -84 0
83 -69 84 0
83 69 84 0
-84 -70 85 0
-84 70 85 0
84 -70 -85 0
84 70 -85 0
-85 -71 -86 0
-85 71 86 0
85 -71 86 0
85 71 86 0
-86 -72 -528 87 0
-86 -72 528 -87 0
-86 72 -529 87 0
-86 72 529 -87 0
86 -72 -530 87 0
86 -72 530 -87 0
86 72 -531 87 0
86 72 531 -87 0
-87 -73 88 0
-87 73 88 0
87 -73 -88 0
87 73 -88 0
-88 -74 -536 89 0
-88 -74 536 -89 0
-88 74 -537 89 0
-88 74 537 -89 0
88 -74 -538 89 0
88 -74 538 -89 0
88 74 -539 89 0
88 74 539 -89 0
-89 -75 90 0
-89 75 -90 0
89 -75 90 0
89 75 90 0
-76 -544 91 0
-76 544 -91 0
76 -545 91 0
76 545 -91 0
-91 -77 -92 0
-91 77 -92 0
91 -77 -92 0
91 77 92 0
-92 -78 -550 93 0
-92 -78 550 -93 0
-92 78 -551 93 0
-92 78 551 -93 0
92 -78 -552 93 0
92 -78 552 -93 0
92 78 -553 93 0
92 78 553 -93 0
-93 -79 94 0
-93 79 -94 0
93 -79 -94 0
93 79 94 0
-94 -80 95 0
-94 80 -95 0
94 -80 95 0
94 80 -95 0
-95 -81 -96 0
-95 81 96 0
95 -81 96 0
95 81 96 0
-96 -82 -97 0
-96 82 97 0
96 -82 -97 0
96 82 -97 0
-97 -83 -98 0
-97 83 98 0
97 -83 -98 0
97 83 -98 0
-98 -84 99 0
-98 84 -99 0
98 -84 99 0
98 84 99 0
-99 -85 100 0
-99 85 -100 0
99 -85 -100 0
99 85 100 0
-100 -86 -101 0
-100 86 -101 0
100 -86 -101 0
100 86 101 0
-101 -87 -586 102 0
-101 -87 586 -102 0
-101 87 -587 102 0
-101 87 587 -102 0
101 -87 -588 102 0
101 -87 588 -102 0
101 87 -589 102 0
101 87 589 -102 0
-102 -88 -103 0
-102 88 -103 0
102 -88 -103 0
102 88 103 0
-103 -89 104 0
-103 89 -104 0
103 -89 -104 0
103 89 -104 0
-104 -90 -598 105 0
-104 -90 598 -105 0
-104 90 -599 105 0
-104 90 599 -105 0
104 -90 -600 105 0
104 -90 600 -105 0
104 90 -601 105 0
104 90 601 -105 0
-91 -602 106 0
-91 602 -106 0
91 -603 106 0
91 603 -106 0
-106 -92 -604 107 0
-106 -92 604 -107 0
-106 92 -605 107 0
-106 92 605 -107 0
106 -92 -606 107 0
106 -92 606 -107 0
106 92 -607 107 0
106 92 607 -107 0
-107 -93 -608 108 0
-107 -93 608 -108 0
-107 93 -609 108 0
-107 93 609 -108 0
107 -93 -610 108 0
107 -93 610 -108 0
107 93 -611 108 0
107 93 611 -108 0
-108 -94 109 0
-108 94 109 0
108 -94 109 0
108 94 -109 0
-109 -95 110 0
-109 95 110 0
109 -95 -110 0
109 95 110 0
-110 -96 -111 0
-110 96 111 0
110 -96 -111 0
110 96 -111 0
-111 -97 112 0
-111 97 112 0
111 -97 -112 0
111 97 -112 0
-112 -98 113 0
-112 98 113 0
112 -98 -113 0
112 98 113 0
-113 -99 114 0
-113 99 -114 0
113 -99 114 0
113 99 -114 0
-114 -100 -115 0
-114 100 115 0
114 -100 115 0
114 100 115 0
-115 -101 116 0
-115 101 -116 0
115 -101 116 0
115 101 -116 0
-116 -102 117 0
-116 102 117 0
116 -102 -117 0
116 102 -117 0
-117 -103 -118 0
-117 103 118 0
117 -103 118 0
117 103 -118 0
-118 -104 -119 0
-118 104 -119 0
118 -104 119 0
118 104 -119 0
-119 -105 120 0
-119 105 -120 0
119 -105 -120 0
119 105 120 0
-106 121 0
106 -121 0
-121 -107 -662 122 0
-121 -107 662 -122 0
-121 107 -663 122 0
-121 107 663 -122 0
121 -107 -664 122 0
121 -107 664 -122 0
121 107 -665 122 0
121 107 665 -122 0
-122 -108 -123 0
-122 108 123 0
122 -108 123 0
122 108 -123 0
-123 -109 124 0
-123 109 -124 0
123 -109 -124 0
123 109 124 0
-124 -110 125 0
-124 110 -125 0
124 -110 125 0
124 110 -125 0
-125 -111 126 0
-125 111 -126 0
125 -111 -126 0
125 111 -126 0
-126 -112 -127 0
-126 112 127 0
126 -112 127 0
126 112 127 0
-127 -113 -686 128 0
-127 -113 686 -128 0
-127 113 -687 128 0
-127 113 687 -128 0
127 -113 -688 128 0
127 -113 688 -128 0
127 113 -689 128 0
127 113 689 -128 0
-128 -114 129 0
-128 114 129 0
128 -114 129 0
128 114 -129 0
-129 -115 -130 0
-129 115 -130 0
129 -115 130 0
129 115 -130 0
-130 -116 131 0
-130 116 -131 0
130 -116 131 0
130 116 -131 0
-131 -117 132 0
-131 117 132 0
131 -117 -132 0
131 117 132 0
-132 -118 133 0
-132 118 -133 0
132 -118 133 0
132 118 -133 0
-133 -119 134 0
-133 119 -134 0
133 -119 -134 0
133 119 134 0
-134 -120 -135 0
-134 120 135 0
134 -120 -135 0
134 120 135 0
-121 -136 0
121 136 0
-136 -122 -720 137 0
-136 -122 720 -137 0
-136 122 -721 137 0
-136 122 721 -137 0
136 -122 -722 137 0
136 -122 722 -137 0
136 122 -723 137 0
136 122 723 -137 0
-137 -123 -138 0
-137 123 -138 0
137 -123 138 0
137 123 -138 0
-138 -124 -728 139 0
-138 -124 728 -139 0
-138 124 -729 139 0
-138 124 729 -139 0
138 -124 -730 139 0
138 -124 730 -139 0
138 124 -731 139 0
138 124 731 -139 0
-139 -125 140 0
-139 125 -140 0
139 -125 -140 0
139 125 -140 0
-140 -126 -736 141 0
-140 -126 736 -141 0
-140 126 -737 141 0
-140 126 737 -141 0
140 -126 -738 141 0
140 -126 738 -141 0
140 126 -739 141 0
140 126 739 -141 0
-141 -127 -740 142 0
-141 -127 740 -142 0
-141 127 -741 142 0
-141 127 741 -142 0
141 -127 -742 142 0
141 -127 742 -142 0
141 127 -743 142 0
141 127 743 -142 0
-142 -128 -744 143 0
-142 -128 744 -143 0
-142 128 -745 143 0
-142 128 745 -143 0
142 -128 -746 143 0
142 -128 746 -143 0
142 128 -747 143 0
142 128 747 -143 0
-143 -129 144 0
-143 129 144 0
143 -129 -144 0
143 129 144 0
-144 -130 -145 0
-144 130 -145 0
144 -130 145 0
144 130 -145 0
-145 -131 -756 146 0
-145 -131 756 -146 0
-145 131 -757 146 0
-145 131 757 -146 0
145 -131 -758 146 0
145 -131 758 -146 0
145 131 -759 146 0
145 131 759 -146 0
-146 -132 147 0
-146 132 147 0
146 -132 -147 0
146 132 147 0
-147 -133 -148 0
-147 133 148 0
147 -133 148 0
147 133 -148 0
-148 -134 -768 149 0
-148 -134 768 -149 0
-148 134 -769 149 0
-148 134 769 -149 0
148 -134 -770 149 0
148 -134 770 -149 0
148 134 -771 149 0
148 134 771 -149 0
-149 -135 -772 150 0
-149 -135 772 -150 0
-149 135 -773 150 0
-149 135 773 -150 0
149 -135 -774 150 0
149 -135 774 -150 0
149 135 -775 150 0
149 135 775 -150 0
-136 151 0
136 -151 0
-151 -137 -778 152 0
-151 -137 778 -152 0
-151 137 -779 152 0
-151 137 779 -152 0
151 -137 -780 152 0
151 -137 780 -152 0
151 137 -781 152 0
151 137 781 -152 0
-152 -138 153 0
-152 138 -153 0
152 -138 -153 0
152 138 -153 0
-153 -139 154 0
-153 139 -154 0
153 -139 154 0
153 139 154 0
-154 -140 -155 0
-154 140 -155 0
154 -140 155 0
154 140 -155 0
-155 -141 156 0
-155 141 -156 0
155 -141 156 0
155 141 156 0
-156 -142 157 0
-156 142 -157 0
156 -142 157 0
156 142 157 0
-157 -143 -158 0
-157 143 158 0
157 -143 -158 0
157 143 -158 0
-158 -144 159 0
-158 144 159 0
158 -144 159 0
158 144 -159 0
-159 -145 160 0
-159 145 160 0
159 -145 -160 0
159 145 -160 0
-160 -146 -814 161 0
-160 -146 814 -161 0
-160 146 -815 161 0
-160 146 815 -161 0
160 -146 -816 161 0
160 -146 816 -161 0
160 146 -817 161 0
160 146 817 -161 0
-161 -147 -162 0
-161 147 -162 0
161 -147 -162 0
161 147 162 0
-162 -148 -163 0
-162 148 163 0
162 -148 163 0
162 148 163 0
-163 -149 164 0
-163 149 164 0
163 -149 -164 0
163 149 164 0
-164 -150 165 0
-164 150 165 0
164 -150 -165 0
164 150 -165 0
-151 -166 0
151 166 0
-166 -152 -167 0
-166 152 -167 0
166 -152 167 0
166 152 167 0
-167 -153 -168 0
-167 153 168 0
167 -153 -168 0
167 153 -168 0
-168 -154 -844 169 0
-168 -154 844 -169 0
-168 154 -845 169 0
-168 154 845 -169 0
168 -154 -846 169 0
168 -154 846 -169 0
168 154 -847 169 0
168 154 847 -169 0
-169 -155 -848 170 0
-169 -155 848 -170 0
-169 155 -849 170 0
-169 155 849 -170 0
169 -155 -850 170 0
169 -155 850 -170 0
169 155 -851 170 0
169 155 851 -170 0
-170 -156 -171 0
-170 156 171 0
170 -156 171 0
170 156 171 0
-171 -157 172 0
-171 157 172 0
171 -157 -172 0
171 157 172 0
-172 -158 173 0
-172 158 -173 0
172 -158 -173 0
172 158 -173 0
-173 -159 174 0
-173 159 -174 0
173 -159 -174 0
173 159 174 0
-174 -160 -175 0
-174 160 175 0
174 -160 -175 0
174 160 -175 0
-175 -161 -872 176 0
-175 -161 872 -176 0
-175 161 -873 176 0
-175 161 873 -176 0
175 -161 -874 176 0
175 -161 874 -176 0
175 161 -875 176 0
175 161 875 -176 0
-176 -162 -876 177 0
-176 -162 876 -177 0
-176 162 -877 177 0
-176 162 877 -177 0
176 -162 -878 177 0
176 -162 878 -177 0
176 162 -879 177 0
176 162 879 -177 0
-177 -163 178 0
-177 163 -178 0
177 -163 178 0
177 163 178 0
-178 -164 -884 179 0
-178 -164 884 -179 0
-178 164 -885 179 0
-178 164 885 -179 0
178 -164 -886 179 0
178 -164 886 -179 0
178 164 -887 179 0
178 164 887 -179 0
-179 -165 -180 0
-179 165 -180 0
179 -165 180 0
179 165 180 0
-166 -181 0
166 181 0
-181 -167 182 0
-181 167 -182 0
181 -167 182 0
181 167 -182 0
-182 -168 -898 183 0
-182 -168 898 -183 0
-182 168 -899 183 0
-182 168 899 -183 0
182 -168 -900 183 0
182 -168 900 -183 0
182 168 -901 183 0
182 168 901 -183 0
-183 -169 -184 0
-183 169 184 0
183 -169 184 0
183 169 -184 0
-184 -170 185 0
-184 170 -185 0
184 -170 185 0
184 170 -185 0
-185 -171 -910 186 0
-185 -171 910 -186 0
-185 171 -911 186 0
-185 171 911 -186 0
185 -171 -912 186 0
185 -171 912 -186 0
185 171 -913 186 0
185 171 913 -186 0
-186 -172 -187 0
-186 172 -187 0
186 -172 187 0
186 172 -187 0
-187 -173 188 0
-187 173 188 0
187 -173 -188 0
187 173 -188 0
-188 -174 189 0
-188 174 -189 0
188 -174 -189 0
188 174 189 0
-189 -175 -190 0
-189 175 190 0
189 -175 190 0
189 175 190 0
-190 -176 191 0
-190 176 -191 0
190 -176 -191 0
190 176 191 0
-191 -177 -192 0
-191 177 192 0
191 -177 192 0
191 177 192 0
-192 -178 193 0
-192 178 -193 0
192 -178 193 0
192 178 -193 0
-193 -179 -194 0
-193 179 194 0
193 -179 194 0
193 179 -194 0
-194 -180 195 0
-194 180 195 0
194 -180 -195 0
194 180 -195 0
-181 -950 196 0
-181 950 -196 0
181 -951 196 0
181 951 -196 0
-196 -182 -197 0
-196 182 197 0
196 -182 -197 0
196 182 -197 0
-197 -183 198 0
-197 183 198 0
197 -183 -198 0
197 183 -198 0
-198 -184 199 0
-198 184 -199 0
198 -184 -199 0
198 184 199 0
-199 -185 200 0
-199 185 200 0
199 -185 -200 0
199 185 200 0
-200 -186 -968 201 0
-200 -186 968 -201 0
-200 186 -969 201 0
-200 186 969 -201 0
200 -186 -970 201 0
200 -186 970 -201 0
200 186 -971 201 0
200 186 971 -201 0
-201 -187 202 0
-201 187 -202 0
201 -187 -202 0
201 187 -202 0
-202 -188 -203 0
-202 188 203 0
202 -188 203 0
202 188 203 0
-203 -189 204 0
-203 189 -204 0
203 -189 204 0
203 189 204 0
-204 -190 -984 205 0
-204 -190 984 -205 0
-204 190 -985 205 0
-204 190 985 -205 0
204 -190 -986 205 0
204 -190 986 -205 0
204 190 -987 205 0
204 190 987 -205 0
-205 -191 -206 0
-205 191 206 0
205 -191 206 0
205 191 206 0
-206 -192 -207 0
-206 192 -207 0
206 -192 207 0
206 192 207 0
-207 -193 208 0
-207 193 208 0
207 -193 208 0
207 193 -208 0
-208 -194 -209 0
-208 194 -209 0
208 -194 209 0
208 194 209 0
-209 -195 -210 0
-209 195 -210 0
209 -195 -210 0
209 195 210 0
-196 211 0
196 -211 0
-211 -197 -1010 212 0
-211 -197 1010 -212 0
-211 197 -1011 212 0
-211 197 1011 -212 0
211 -197 -1012 212 0
211 -197 1012 -212 0
211 197 -1013 212 0
211 197 1013 -212 0
-212 -198 213 0
-212 198 -213 0
212 -198 213 0
212 198 213 0
-213 -199 214 0
-213 199 -214 0
213 -199 214 0
213 199 -214 0
-214 -200 215 0
-214 200 215 0
214 -200 -215 0
214 200 -215 0
-215 -201 -216 0
-215 201 216 0
215 -201 216 0
215 201 -216 0
-216 -202 217 0
-216 202 -217 0
216 -202 217 0
216 202 217 0
-217 -203 218 0
-217 203 218 0
217 -203 218 0
217 203 -218 0
-218 -204 219 0
-218 204 219 0
218 -204 -219 0
218 204 -219 0
-219 -205 220 0
-219 205 220 0
219 -205 220 0
219 205 -220 0
-220 -206 -1046 221 0
-220 -206 1046 -221 0
-220 206 -1047 221 0
-220 206 1047 -221 0
220 -206 -1048 221 0
220 -206 1048 -221 0
220 206 -1049 221 0
220 206 1049 -221 0
-221 -207 222 0
-221 207 222 0
221 -207 222 0
221 207 -222 0
-222 -208 223 0
-222 208 223 0
222 -208 223 0
222 208 -223 0
-223 -209 -1058 224 0
-223 -209 1058 -224 0
-223 209 -1059 224 0
-223 209 1059 -224 0
223 -209 -1060 224 0
223 -209 1060 -224 0
223 209 -1061 224 0
223 209 1061 -224 0
-224 -210 225 0
-224 210 -225 0
224 -210 225 0
224 210 225 0
225 0
