data/benchmarks/bayes/75-15-9-q.gr
p tw 1065 1180
166 181
63 434
149 775
15 30
67 68
105 598
47 62
99 100
18 264
176 878
164 885
59 73
142 745
107 122
159 160
139 154
8 9
221 1047
44 420
40 41
199 214
48 63
100 101
19 265
80 95
52 451
132 133
224 1061
169 847
92 106
140 155
192 193
172 187
41 42
66 453
73 74
168 900
184 198
33 47
81 96
133 134
14 15
125 139
171 911
173 188
67 454
22 37
39 346
74 75
106 107
121 663
104 601
87 530
137 778
66 80
114 129
166 167
47 48
113 686
158 172
176 873
63 438
7 21
206 221
55 70
107 108
181 951
142 740
209 1059
99 113
179 887
61 486
151 779
147 162
199 200
48 49
80 81
191 205
107 611
40 54
140 141
37 394
127 687
186 913
169 851
132 146
152 780
223 1060
81 82
73 87
92 604
128 688
145 759
173 174
22 23
138 729
165 179
154 844
14 28
126 736
114 115
55 465
200 969
183 898
32 320
206 207
48 435
55 56
198 212
176 877
47 61
148 769
147 148
164 884
78 552
168 845
141 739
139 153
207 208
107 606
21 36
199 213
54 460
80 94
113 128
169 846
172 186
66 452
205 220
54 69
59 422
181 182
146 817
182 901
146 161
171 910
173 187
121 662
72 531
87 102
214 215
69 462
179 194
220 1049
28 43
176 872
206 220
35 329
89 538
181 950
88 103
185 911
18 267
120 135
21 22
8 241
141 743
151 778
147 161
180 195
44 423
29 44
107 610
61 76
113 114
37 393
127 686
121 136
186 912
153 168
205 206
223 1059
2 17
54 55
62 77
94 109
146 147
154 169
220 1046
3 18
20 327
74 536
35 50
87 88
138 728
175 875
39 349
76 487
95 110
127 142
179 180
28 29
32 319
86 528
187 202
36 51
52 395
88 89
68 83
106 604
148 768
62 436
128 143
78 551
168 844
160 175
29 30
141 738
61 62
178 885
107 605
21 35
161 814
69 84
121 122
54 459
101 116
153 154
2 3
113 127
161 176
213 214
137 722
10 25
62 63
94 95
205 219
54 68
102 117
154 155
13 27
59 421
3 4
146 816
35 36
146 160
91 602
194 209
14 251
68 460
105 119
43 58
95 96
197 1010
93 553
127 128
126 739
87 101
67 510
135 150
187 188
36 37
205 987
68 69
69 461
87 586
179 193
28 42
76 91
35 328
89 537
128 129
160 161
160 817
185 910
120 134
212 1013
168 183
220 221
79 93
69 70
141 742
101 102
161 162
20 34
10 11
72 471
153 167
2 16
102 103
94 108
194 195
135 774
53 67
43 44
68 455
58 420
20 326
128 744
35 49
57 473
34 328
127 141
190 984
86 100
140 736
76 77
9 24
69 465
106 603
68 82
168 169
27 41
62 435
160 174
141 737
82 511
42 57
178 884
92 552
101 115
134 149
60 74
122 723
137 721
75 90
201 971
16 31
14 250
68 459
74 539
108 123
9 10
67 509
71 470
205 986
177 878
49 64
150 772
106 607
160 816
186 200
109 124
51 393
170 848
212 1012
42 43
201 216
146 756
82 97
134 135
142 157
53 457
72 470
23 38
186 968
136 720
83 98
13 250
115 130
102 587
16 17
135 773
162 876
49 441
175 190
68 454
56 71
108 109
193 207
116 131
25 349
34 327
88 536
49 50
208 223
57 72
87 589
109 110
89 104
167 182
204 985
134 768
149 164
201 202
50 51
30 45
18 318
82 83
42 56
90 105
92 551
142 143
200 215
23 24
134 148
143 745
182 197
83 84
90 599
141 156
4 267
115 116
75 89
201 970
123 138
175 176
34 48
33 321
24 25
206 1048
56 57
139 729
68 458
58 423
64 79
116 117
128 747
149 770
155 850
174 189
108 122
156 171
208 209
67 81
67 508
57 58
93 609
167 168
89 90
211 1010
177 877
49 63
159 173
97 112
122 663
8 22
149 150
160 815
207 222
51 392
189 204
212 1011
100 114
148 163
200 201
131 757
81 509
64 438
82 96
182 183
192 206
41 55
31 32
141 142
53 456
107 665
161 874
23 37
40 346
123 124
127 741
133 147
181 196
115 129
215 216
102 586
74 88
64 65
70 463
49 440
122 137
174 175
56 70
156 157
149 774
15 29
5 6
25 348
34 326
142 744
107 121
97 98
71 473
108 611
221 1046
167 181
89 103
150 775
189 190
204 984
48 62
19 264
148 149
52 450
170 851
224 1060
30 44
140 154
63 78
168 899
200 214
146 759
91 545
222 223
81 95
124 731
101 589
4 19
143 744
90 598
141 155
4 266
186 971
67 453
22 36
201 969
122 123
136 723
104 600
33 320
87 529
206 1047
114 128
139 728
37 52
162 879
174 188
149 769
63 437
155 849
209 1058
55 69
105 601
93 608
88 539
179 886
200 970
70 85
122 662
207 221
134 771
11 26
63 64
148 162
152 779
169 850
131 756
81 508
4 5
145 758
128 687
107 664
161 873
44 59
127 740
67 457
137 781
37 38
55 464
200 968
196 211
70 462
122 136
155 170
48 434
113 689
149 773
176 876
63 441
96 111
18 33
70 71
142 743
108 610
130 131
188 203
11 12
170 185
224 1059
129 144
169 845
163 164
66 451
168 898
44 45
91 544
124 730
203 218
101 588
92 607
182 900
162 177
4 265
67 452
144 159
154 847
72 530
196 197
104 599
33 319
87 528
103 118
155 156
183 901
137 138
195 210
220 1048
149 768
96 97
63 436
18 19
177 192
105 600
88 102
18 266
136 151
164 887
142 747
179 885
188 189
8 240
180 194
221 1049
118 133
44 422
29 43
170 171
77 92
107 609
129 130
37 392
19 267
186 911
210 225
111 112
169 184
169 849
152 778
221 222
223 1058
151 166
203 204
62 76
110 125
162 163
145 757
128 686
161 872
154 168
144 145
202 217
3 17
51 66
103 104
171 913
67 456
121 665
39 348
76 486
95 109
55 463
85 86
137 780
143 158
175 874
32 318
155 169
187 201
177 178
36 50
52 394
113 688
136 137
63 440
176 875
209 1061
96 110
142 742
78 550
118 119
128 142
196 951
77 78
188 202
151 781
107 604
69 83
54 458
169 170
129 143
127 689
169 844
161 175
151 152
10 24
110 111
66 450
102 116
202 203
25 40
59 420
92 606
51 52
146 815
162 176
182 899
194 208
43 57
67 451
138 731
93 552
143 144
72 529
126 738
104 598
103 117
154 846
135 149
200 971
183 900
17 32
69 460
86 531
48 437
195 209
220 1047
63 435
35 327
89 536
176 879
148 771
18 265
164 886
168 182
179 884
168 847
141 741
50 65
44 421
77 91
107 608
161 817
186 910
169 183
169 848
25 26
110 124
145 756
24 39
202 216
51 65
171 912
197 1013
84 99
121 664
57 472
39 347
175 873
17 18
143 157
176 191
9 23
69 464
52 393
106 602
117 132
62 434
196 950
185 913
141 736
82 510
209 224
61 487
151 780
58 73
150 165
37 395
127 688
122 722
31 46
137 720
223 1061
91 106
92 605
146 814
182 898
183 198
32 47
84 85
158 159
138 730
20 329
74 538
93 551
217 218
124 139
126 737
176 177
5 20
190 987
205 985
17 31
32 321
69 459
65 80
86 530
117 118
140 739
106 606
35 326
109 123
148 770
157 172
209 210
6 21
58 59
78 553
168 846
201 215
141 740
191 192
50 64
98 113
178 887
107 607
161 816
54 461
142 156
190 205
39 54
91 92
224 225
83 97
131 146
183 184
32 33
135 772
59 423
175 189
24 38
72 87
124 125
197 1012
84 98
175 872
57 471
116 130
164 179
216 217
65 66
176 190
208 222
198 199
57 71
69 463
52 392
87 588
157 158
6 7
117 131
89 539
149 163
139 140
185 912
197 212
98 99
82 509
209 223
58 72
90 104
92 550
190 191
39 40
150 164
182 196
122 721
172 173
72 473
131 132
123 137
223 224
72 73
183 197
32 46
68 457
58 422
64 78
164 165
20 328
74 537
93 550
128 746
124 138
156 170
198 213
5 19
190 986
38 53
205 984
86 529
69 458
65 79
140 738
177 876
97 111
106 605
130 145
160 814
197 198
157 171
62 437
6 20
189 203
212 1010
71 86
18 321
98 112
178 886
161 815
163 178
12 27
53 455
190 204
39 53
137 723
104 119
131 145
13 28
49 439
45 60
72 86
91 603
68 461
105 120
197 1011
137 152
57 470
38 39
25 347
9 241
164 178
67 511
211 1013
46 61
71 472
78 93
87 587
150 774
138 153
170 850
51 395
19 34
71 72
197 211
82 508
79 94
63 77
111 126
146 758
12 13
64 441
171 186
20 35
4 18
122 720
52 67
104 105
72 472
40 349
112 127
186 970
201 968
13 14
136 722
206 1046
204 219
102 589
135 775
53 68
37 51
162 878
85 100
68 456
58 421
128 745
145 160
155 848
46 47
26 41
78 79
34 329
88 538
38 52
190 985
86 101
70 84
76 545
138 139
140 737
19 20
130 144
204 987
178 193
27 42
11 25
52 453
79 80
134 770
71 85
18 320
119 134
171 172
20 21
92 553
52 53
163 177
12 26
53 454
60 75
44 58
112 113
107 663
143 747
90 601
104 118
152 167
204 205
1 16
53 54
49 438
45 59
139 731
93 108
145 146
149 772
26 27
137 151
185 200
25 346
9 240
18 32
86 87
211 1012
93 611
71 471
78 92
108 609
126 141
177 879
178 179
150 773
27 28
122 665
138 152
186 201
170 184
170 849
51 394
19 33
224 1058
119 120
111 125
131 759
211 212
146 757
81 511
64 440
171 185
124 729
203 217
101 587
52 66
152 153
4 264
1 2
40 348
112 126
127 743
144 158
136 721
186 969
13 251
212 213
33 318
93 94
204 218
102 588
70 465
162 877
85 99
185 186
145 159
193 208
177 191
105 599
26 40
126 127
59 74
88 537
142 746
76 544
186 187
118 132
221 1048
218 219
204 986
178 192
210 224
19 266
134 769
52 452
92 107
18 319
119 133
219 220
168 901
184 199
33 48
107 662
143 746
90 600
125 140
152 166
67 455
137 779
55 462
34 49
87 531
206 1049
66 81
139 730
93 107
193 194
113 687
149 771
158 173
176 874
63 439
7 22
59 60
155 851
185 199
209 1060
142 741
67 82
211 1011
93 610
99 114
108 608
126 140
159 174
122 664
191 206
8 23
40 55
92 93
100 115
132 147
152 781
131 758
184 185
33 34
81 510
64 439
192 207
41 56
25 39
101 586
73 88
125 126
128 689
124 728
161 875
133 148
40 347
67 450
34 35
127 742
154 845
14 29
66 67
72 528
165 180
74 89
183 899
70 464
106 121
7 8
48 436
